N = 12;

m = [
  [0 7 10 10 5 1 6 5 1 3 7],
  [9 0 10 8 9 2 5 4 6 9 0],
  [1 1 0 2 2 7 10 6 7 4 2],
  [5 2 4 0 0 8 9 7 3 1 6],
  [2 9 7 7 0 5 5 7 3 10 8],
  [0 7 5 8 8 0 3 5 6 2 9],
  [3 1 3 5 7 1 0 1 0 6 8],
  [6 2 0 4 7 3 2 0 5 10 5],
  [1 2 6 9 4 0 6 8 0 0 0],
  [9 0 0 8 1 8 8 4 0 0 0],
  [7 7 0 10 9 10 1 4 1 7 0]
];
